<number of tasks>
50

<cycle time>
1000

<order strength>
0.601


<task times>
1 33
2 41
3 588
4 111
5 82
6 190
7 275
8 88
9 234
10 513
11 503
12 304
13 107
14 102
15 240
16 340
17 465
18 208
19 110
20 32
21 74
22 161
23 77
24 92
25 159
26 192
27 196
28 195
29 210
30 89
31 104
32 225
33 523
34 72
35 95
36 277
37 166
38 131
39 28
40 22
41 166
42 251
43 321
44 380
45 479
46 123
47 111
48 378
49 165
50 276

<precedence relations>
1,5
1,7
1,19
2,9
3,6
3,7
3,8
4,6
4,19
5,11
6,10
6,12
6,13
7,15
7,25
8,13
8,14
9,13
9,14
9,15
10,16
11,17
12,18
13,23
13,25
14,19
15,21
16,21
17,21
18,21
19,20
19,27
19,32
20,22
21,23
22,25
23,24
23,26
23,27
23,28
24,29
25,35
26,32
26,39
27,31
28,30
28,31
29,34
30,33
30,35
30,37
30,39
31,38
31,45
32,35
32,36
32,38
33,40
34,44
35,41
35,42
35,43
37,45
38,50
40,50
41,46
42,47
43,48
44,49

<end>
